set Actividades:= Inicio A B C D E F G H I J K L M N O Fin;

set Precedencias:=
Inicio A
A B
B C
C D
C E
C F
D G
E H
G H
F I
H J
H K
D L
I L
J M
K M
L N
N O
O Fin
M Fin;

param:
	TN	CN	TA	CA	CM:=
Inicio 0	0	0	0	0
A	3	7	2	8	1
B	5	10	3	12	1
C	12	28	10	30	1
D	5	9.5	4	10	0.5
E	8	14.5	6	16	0.75
F	8	17	7	18.5	1.5
G	7	12	6	14	2
H	10	16.5	10	16.5	0
I	7	15	6	16.2	1.2
J	3	7.4	2	8.2	0.8
K	6	16.2	5	17	0.8
L	10	18.2	8	19.5	0.65
M	9	17.4	8	18	0.6
N	8	15	8	15	0
O	2	3.2	2	3.2	0
Fin 0	0	0	0	0;
